81 92258
53 10 39 43 14 78 81 54 67 40 35 28 59 73 20 8 26 80 71 22 24 1 75 72 32 29 25 77 64 16 5 79 58 46 2 63 23 49 15 19 18 44 51 12 74 60 55 70 62 37 45 11 27 34 76 38 36 42 52 13 21 33 65 4 41 6 7 31 68 61 69 30 47 57 48 17 56 50 9 3 66 
